p cnf 15 27
15 12 11 0
15 -12 1 0
15 11 -1 0
15 -9 -5 0
-15 -8 -2 0
15 -7 3 0
-15 4 -1 0
14 13 7 0
14 -13 1 0
-14 10 6 0
-14 -6 3 0
-13 -12 -7 0
-13 -10 -9 0
13 -8 -7 0
-13 7 -5 0
13 -7 -5 0
-13 6 -1 0
12 -11 9 0
12 9 8 0
12 -7 -3 0
-10 -8 -1 0
-10 -6 -5 0
-9 8 3 0
-7 -6 2 0
7 4 -3 0
-6 4 3 0
-6 -4 1 0
